c generated by sgen
p cnf 81 172
-2 -3 -4 0
-1 -3 -4 0
-1 -2 -4 0
-1 -2 -3 0
-6 -7 -8 0
-5 -7 -8 0
-5 -6 -8 0
-5 -6 -7 0
-10 -11 -12 0
-9 -11 -12 0
-9 -10 -12 0
-9 -10 -11 0
-14 -15 -16 0
-13 -15 -16 0
-13 -14 -16 0
-13 -14 -15 0
-18 -19 -20 0
-17 -19 -20 0
-17 -18 -20 0
-17 -18 -19 0
-22 -23 -24 0
-21 -23 -24 0
-21 -22 -24 0
-21 -22 -23 0
-26 -27 -28 0
-25 -27 -28 0
-25 -26 -28 0
-25 -26 -27 0
-30 -31 -32 0
-29 -31 -32 0
-29 -30 -32 0
-29 -30 -31 0
-34 -35 -36 0
-33 -35 -36 0
-33 -34 -36 0
-33 -34 -35 0
-38 -39 -40 0
-37 -39 -40 0
-37 -38 -40 0
-37 -38 -39 0
-42 -43 -44 0
-41 -43 -44 0
-41 -42 -44 0
-41 -42 -43 0
-46 -47 -48 0
-45 -47 -48 0
-45 -46 -48 0
-45 -46 -47 0
-50 -51 -52 0
-49 -51 -52 0
-49 -50 -52 0
-49 -50 -51 0
-54 -55 -56 0
-53 -55 -56 0
-53 -54 -56 0
-53 -54 -55 0
-58 -59 -60 0
-57 -59 -60 0
-57 -58 -60 0
-57 -58 -59 0
-62 -63 -64 0
-61 -63 -64 0
-61 -62 -64 0
-61 -62 -63 0
-66 -67 -68 0
-65 -67 -68 0
-65 -66 -68 0
-65 -66 -67 0
-70 -71 -72 0
-69 -71 -72 0
-69 -70 -72 0
-69 -70 -71 0
-74 -75 -76 0
-73 -75 -76 0
-73 -74 -76 0
-73 -74 -75 0
-77 -78 -79 0
-77 -78 -80 0
-77 -78 -81 0
-77 -79 -80 0
-77 -79 -81 0
-77 -80 -81 0
-78 -79 -80 0
-78 -79 -81 0
-78 -80 -81 0
-79 -80 -81 0
77 60 7 0
30 60 7 0
30 77 7 0
30 77 60 0
70 19 81 0
61 19 81 0
61 70 81 0
61 70 19 0
55 28 3 0
62 28 3 0
62 55 3 0
62 55 28 0
40 29 73 0
26 29 73 0
26 40 73 0
26 40 29 0
63 31 52 0
13 31 52 0
13 63 52 0
13 63 31 0
36 5 47 0
68 5 47 0
68 36 47 0
68 36 5 0
9 51 34 0
71 51 34 0
71 9 34 0
71 9 51 0
45 69 58 0
54 69 58 0
54 45 58 0
54 45 69 0
15 25 10 0
79 25 10 0
79 15 10 0
79 15 25 0
65 27 20 0
59 27 20 0
59 65 20 0
59 65 27 0
76 42 8 0
64 42 8 0
64 76 8 0
64 76 42 0
80 48 75 0
12 48 75 0
12 80 75 0
12 80 48 0
6 72 44 0
2 72 44 0
2 6 44 0
2 6 72 0
4 14 22 0
46 14 22 0
46 4 22 0
46 4 14 0
57 23 74 0
33 23 74 0
33 57 74 0
33 57 23 0
39 21 56 0
78 21 56 0
78 39 56 0
78 39 21 0
50 53 41 0
17 53 41 0
17 50 41 0
17 50 53 0
49 67 38 0
1 67 38 0
1 49 38 0
1 49 67 0
16 37 18 0
35 37 18 0
35 16 18 0
35 16 37 0
24 66 43 0
24 66 11 0
24 66 32 0
24 43 11 0
24 43 32 0
24 11 32 0
66 43 11 0
66 43 32 0
66 11 32 0
43 11 32 0
